s SATISFIABLE
v 0
v -243
v -588
v -513
v 0
v -979
v 0
v 0
v 402
v -187
v 688
v -666
v 0
v 0
v -613
v -495
v 0
v 0
v 0
v 0
v -388
v 0
v 0
v 0
v -862
v -332
v 0
v 0
v -809
v 0
v -265
v -535
v -913
v 0
v -359
v -896
v 0
v 0
v -244
v -514
v 198
v 0
v 0
v 0
v 0
v 0
v -844
v -383
v -314
v 0
v 0
v 0
v -544
v -885
v -214
v -107
v 0
v -482
v -763
v 0
v 0
v -716
v 0
v 0
v -789
v -31
v -84
v -605
v 586
v 0
v 0
v -977
v -472
v -191
v 0
v 0
v 0
v 0
v 0
v -365
v -835
v 0
v 0
v -302
v 0
v -852
v 0
v 0
v 543
v -882
v -213
v 0
v 0
v 0
v -780
v 0
v 0
v -38
v 0
v 0
v 0
v 0
v 647
v 935
v -940
v 0
v 0
v 0
v 294
v -423
v -69
v -204
v 0
v -554
v 0
v 0
v 0
v -775
v 0
v 0
v 56
v 23
v -111
v -703
v 0
v -170
v 0
v 0
v -95
v 0
v 0
v 0
v -373
v 0
v -823
v -424
v -947
v -932
v 0
v 0
v -293
v 0
v 0
v -640
v -128
v -744
v -450
v -986
v 0
v 0
v 0
v 0
v 0
v 0
v -623
v -41
v 0
v -790
v 0
v 0
v 0
v 0
v 0
v -28
v 0
v 0
v -179
v 0
v 0
v -950
v 0
v -284
v -561
v 0
v -231
v 415
v -679
v 693
v 0
v 0
v 722
v 0
v 0
v -649
v 0
v 0
v -155
v 0
v 0
v 67
v -628
v 0
v 0
v 0
v 0
v 0
v -123
v 908
v 0
v -522
v 0
v -346
v 816
v 0
v -272
v 0
v 1
v 0
v 0
v 0
v 0
v 0
v 0
v 0
v -568
v -164
v -670
v -735
v 0
v -238
v 0
v -959
v 0
v 0
v -16
v -927
v -138
v 0
v -435
v -440
v 0
v -651
v 0
v 0
v -992
v -73
v 0
v 0
v -805
v 0
v -870
v -269
v -539
v -320
v -355
v 0
v -907
v 0
v -349
v -590
v -464
v 0
v -635
v 0
v -819
v 0
v -506
v 0
v 0
v -685
v -960
v 0
v -573
v -397
v -498
v 0
v -256
v -223
v 0
v 848
v -318
v 0
v 0
v 144
v 0
v -449
v 0
v 0
v -131
v 0
v 0
v 0
v -755
v -658
v 0
v 0
v 0
v -802
v -327
v -918
v -352
v 0
v -877
v 0
v -609
v 0
v 0
v 241
v 0
v -511
v 0
v -404
v 0
v -228
v 0
v -181
v 0
v 0
v -615
v -660
v -493
v 0
v 0
v 0
v -578
v -841
v -386
v -311
v 0
v 0
v 0
v 0
v -330
v -860
v 0
v 0
v -537
v -911
v 0
v -894
v -267
v -602
v 0
v -581
v 970
v 0
v 0
v -475
v -196
v 0
v 0
v 0
v -368
v -838
v 0
v 0
v 0
v -846
v -381
v -316
v 0
v 0
v 0
v -546
v -887
v -869
v -339
v -216
v -710
v 0
v -484
v -765
v 0
v 0
v 0
v -37
v -101
v -82
v 0
v 0
v 0
v 0
v -837
v 0
v 0
v -367
v 0
v -209
v 0
v -850
v -559
v 0
v 0
v -300
v 0
v -116
v 0
v 0
v -772
v 0
v 0
v 0
v -51
v -24
v -108
v -786
v 0
v 0
v -719
v 0
v 0
v 0
v 0
v -828
v 0
v 0
v 0
v -378
v -421
v -942
v -937
v 0
v 0
v 0
v -159
v 0
v -296
v -645
v -202
v 0
v -552
v 0
v 0
v 0
v 0
v -795
v 0
v -58
v 0
v 0
v 0
v 172
v 0
v -701
v -97
v 821
v 0
v -371
v 0
v 0
v -725
v 949
v 0
v 0
v 0
v -152
v 0
v 0
v 0
v -60
v -625
v -742
v 0
v 0
v -980
v 0
v -456
v -47
v 0
v 0
v 0
v -118
v 0
v 0
v -792
v 0
v -708
v 0
v 0
v 0
v 0
v 282
v -237
v -413
v -695
v 0
v -956
v -567
v -19
v -922
v -430
v -148
v 0
v -759
v -654
v 0
v 997
v 0
v -445
v -76
v -121
v 0
v 0
v -459
v 0
v 0
v -48
v 0
v 0
v -344
v -469
v -270
v 0
v -638
v -520
v -814
v 0
v -3
v -408
v 0
v 0
v -224
v -390
v -682
v 0
v -619
v 0
v -251
v -574
v 0
v -967
v -501
v 0
v 0
v -162
v -733
v 0
v 676
v 0
v 0
v -10
v -925
v -442
v -990
v 0
v 0
v 437
v -653
v 0
v 0
v -71
v 0
v 0
v 807
v -322
v -357
v -872
v 0
v -898
v -462
v 0
v -633
v 0
v -596
v 0
v -901
v -8
v -508
v -610
v 0
v 0
v -184
v -665
v 0
v 0
v 0
v -258
v -399
v -496
v 0
v 0
v -401
v 0
v 0
v 0
v -146
v 0
v 0
v 0
v -133
v 0
v 0
v 757
v 0
v -999
v 78
v 0
v -530
v 0
v -329
v -916
v -260
v -879
v 0
v -893
v 0
v 0
v 0
v 0
v -247
v 517
v 0
v -478
v -406
v 0
v -183
v -969
v 662
v 0
v 0
v -617
v 0
v 0
v 491
v 0
v 0
v 0
v -843
v -384
v -313
v 0
v 0
v 0
v -549
v -888
v -866
v -336
v -219
v 0
v -104
v 0
v -481
v 0
v -715
v 0
v -760
v 0
v -32
v -87
v 0
v 0
v -248
v -583
v 0
v -518
v 0
v -972
v -477
v -194
v -600
v 0
v 0
v 0
v -307
v 0
v -857
v 0
v 0
v -210
v 0
v -540
v 0
v -881
v -103
v 0
v -486
v 0
v 0
v -767
v -712
v -35
v -80
v 0
v 0
v 0
v 0
v 361
v -831
v 0
v 0
v 0
v 0
v -207
v 0
v -557
v 0
v -770
v 0
v -114
v 0
v 0
v 0
v -53
v -26
v -784
v 0
v 0
v 0
v 0
v 89
v 0
v -826
v -376
v 0
v -728
v -427
v -944
v -643
v 0
v -290
v -931
v 0
v 0
v 0
v 0
v -309
v 0
v -859
v 0
v 0
v -550
v -200
v 0
v 0
v 0
v 0
v 779
v 0
v -797
v 0
v 0
v -707
v 0
v 0
v 0
v -174
v -91
v 0
v 0
v -690
v -287
v -562
v -232
v -416
v -953
v 0
v 0
v -727
v -428
v 0
v -150
v 0
v 0
v 0
v 0
v -62
v -627
v -982
v 0
v -740
v 454
v 0
v 0
v 0
v 45
v 0
v -527
v 0
v -343
v 0
v -813
v 277
v 0
v -4
v 0
v 0
v -98
v 0
v 0
v 0
v -565
v -169
v 738
v -235
v 0
v -411
v -954
v 0
v -697
v -280
v 0
v -447
v -432
v 0
v -920
v 0
v -995
v -656
v -74
v 127
v 0
v 0
v 0
v 0
v 0
v -989
v -904
v 0
v -636
v 0
v 0
v -593
v -467
v -503
v 0
v -226
v -965
v 0
v -253
v 0
v -576
v -680
v -392
v 0
v 0
v 0
v 0
v -731
v 0
v -418
v -160
v -674
v 0
v 0
v 0
v 12
v -289
v 750
v -141
v 0
v 0
v -439
v 0
v 0
v 0
v 0
v -134
v 0
v -324
v -351
v -874
v 0
v 0
v -801
v -903
v -529
v 0
v 0
v -631
v 0
v 0
v -279
v -594
v 0
v -460
v -403
v 0
v 0
v -186
v 0
v 0
v 0
v -494
v 0
v -689
v -667
v -612
v 0
v 0
v 0
v -863
v 333
v 0
v 0
v -262
v -532
v 914
v 0
v -891
v 0
v 0
v 0
v -515
v -199
v -245
v 0
v 0
v 0
v 0
v 0
v -382
v -315
v 0
v 0
v -845
v 0
v -864
v 0
v -334
v -106
v 0
v -788
v 0
v -483
v -762
v 0
v 0
v -717
v 0
v -30
v -85
v -606
v 0
v 0
v -585
v 0
v 0
v -974
v -471
v -192
v 0
v 0
v -364
v 0
v 0
v 0
v -834
v -305
v 0
v -855
v 0
v 0
v 0
v -542
v -883
v -212
v 0
v -783
v 0
v -488
v -769
v 0
v 0
v 0
v 0
v 0
v 0
v 0
v 0
v -363
v -833
v 0
v 0
v -205
v 0
v -555
v 0
v 0
v 0
v 0
v 0
v -776
v -798
v 0
v 0
v -112
v -55
v -20
v -702
v 0
v 0
v -171
v 0
v -94
v 0
v -824
v 374
v 0
v -425
v -946
v -641
v -933
v 0
v 0
v -292
v 0
v 0
v -747
v 0
v -985
v -620
v -453
v 0
v 0
v -42
v 0
v 0
v 0
v 0
v 0
v 0
v -791
v -29
v 705
v 0
v -176
v 0
v 0
v 0
v -93
v 0
v -230
v 0
v 0
v -285
v 0
v -414
v -951
v 0
v -560
v -692
v -678
v -721
v 0
v -938
v 0
v 0
v -299
v 0
v 0
v 0
v -156
v -64
v -122
v -629
v 0
v 0
v 0
v 0
v 0
v -525
v 0
v -341
v -811
v -275
v -598
v 0
v 0
v -6
v 0
v 0
v 0
v 0
v 0
v 0
v -736
v 0
v 0
v -673
v -699
v 0
v -167
v -15
v 926
v -650
v -139
v 0
v 0
v -993
v 0
v 0
v -441
v -434
v -72
v -125
v -749
v 0
v 0
v 0
v 0
v 0
v -906
v 0
v -348
v -465
v 0
v -818
v -591
v 0
v 0
v -634
v -505
v 0
v -686
v -963
v -570
v -668
v 0
v -220
v 0
v -255
v -394
v 0
v -189
v 0
v -849
v 319
v 0
v 0
v -929
v -143
v 0
v 0
v 0
v 136
v 0
v 0
v -752
v 0
v 0
v 0
v 0
v -803
v -326
v -919
v -353
v 0
v -876
v 0
v 0
v 0
v -242
v 0
v 0
v -978
v -589
v -512
v -405
v 0
v -229
v 0
v -614
v 0
v -579
v -180
v -492
v 0
v 0
v 0
v 0
v -661
v 0
v 0
v -389
v -861
v 0
v 0
v -331
v 0
v -808
v 0
v -264
v 0
v -358
v -897
v 0
v -912
v -534
v -603
v 0
v 0
v 971
v -580
v -474
v -197
v 0
v 0
v 0
v 0
v 0
v -847
v -317
v -380
v 0
v 0
v 884
v -215
v -545
v -485
v 764
v 0
v -711
v 0
v 0
v 0
v 100
v -36
v -83
v 604
v 0
v -587
v -976
v 473
v 0
v 0
v 0
v -190
v 0
v -366
v -836
v 0
v 0
v -303
v 0
v 853
v 0
v 0
v 0
v 0
v 0
v -117
v 0
v -773
v 0
v 0
v -50
v -25
v 781
v 0
v 0
v 0
v 0
v -39
v 0
v -829
v 0
v 0
v -379
v 0
v -422
v -941
v 0
v -646
v 0
v 0
v 0
v -295
v -934
v -68
v 203
v -553
v 0
v -110
v 0
v 0
v 0
v -774
v 0
v -57
v -22
v 0
v 0
v 0
v -173
v 0
v -700
v -96
v 0
v -822
v 0
v -372
v 0
v 0
v -724
v -948
v 0
v 0
v 0
v -153
v 0
v 0
v 0
v -61
v -129
v -622
v 0
v -987
v 0
v 0
v 0
v 0
v -451
v 0
v -745
v -40
v 0
v 0
v 0
v 0
v -119
v 0
v 0
v -793
v 0
v 0
v 0
v -178
v 0
v 0
v -283
v -566
v -236
v -957
v 0
v -694
v -412
v -18
v 0
v 0
v -648
v 0
v 0
v -154
v 0
v 0
v -723
v -66
v 0
v 0
v 120
v -458
v 0
v 0
v -49
v -909
v 0
v -347
v -817
v 0
v -273
v 0
v 0
v -523
v -409
v 0
v 0
v 225
v -250
v -683
v -966
v 0
v -618
v 575
v -391
v 0
v 0
v -500
v 0
v 0
v 569
v -165
v 0
v -239
v 0
v -958
v 0
v -671
v 0
v 0
v -734
v -17
v -924
v -443
v 0
v 0
v 0
v -436
v -652
v 0
v -991
v -70
v 0
v -804
v -321
v 0
v -268
v -538
v -354
v -871
v 0
v 0
v -463
v 0
v -632
v 0
v 0
v -597
v -900
v -9
v -507
v 0
v 0
v -222
v 0
v -684
v -961
v 0
v -257
v -572
v -396
v -499
v 0
v 0
v 0
v -130
v 0
v -448
v 0
v 0
v 0
v 0
v 0
v -754
v -659
v 0
v -145
v 0
v 0
v 328
v -261
v 531
v -917
v 0
v 0
v -892
v -878
v 510
v -608
v 0
v 0
v 0
v 240
v 0
v -407
v -182
v 490
v -968
v -663
v 0
v 0
v -616
v 0
v 0
v 0
v 0
v 0
v -310
v 0
v 387
v -840
v 0
v 0
v 0
v 0
v -548
v -337
v 218
v 0
v -889
v -867
v 0
v 266
v -536
v 0
v -895
v -910
v 0
v 0
v -249
v -582
v 0
v -519
v 0
v -973
v -476
v -195
v -601
v 0
v 0
v 0
v -369
v -839
v 0
v 0
v 306
v 0
v 0
v 0
v -856
v 0
v 0
v -547
v -886
v -868
v -338
v -217
v -102
v 0
v -487
v -766
v 0
v 713
v 0
v 34
v -81
v 0
v 0
v 0
v -830
v 360
v 0
v 0
v 0
v 0
v -208
v 0
v 558
v -851
v 0
v 0
v 0
v -301
v 0
v -115
v 0
v 0
v 0
v 0
v -771
v -52
v -27
v 109
v -787
v 0
v -718
v 0
v 0
v 0
v 0
v 0
v -827
v -377
v 0
v -943
v -644
v -936
v 0
v -420
v 0
v -158
v -297
v 0
v 0
v -308
v 0
v 0
v -858
v 0
v -551
v -201
v 0
v 0
v 0
v 0
v 0
v -794
v -59
v -706
v 0
v 0
v 0
v -175
v -90
v 0
v 0
v 0
v -820
v -370
v -726
v 429
v 0
v 0
v 0
v 151
v 0
v 0
v -63
v -624
v -743
v 0
v -981
v 0
v -457
v 0
v -46
v 0
v -526
v 0
v 342
v 0
v -276
v 0
v -812
v -5
v -709
v 0
v 0
v -410
v 0
v 0
v -281
v -564
v -168
v -739
v 0
v -955
v 0
v -696
v 0
v -234
v -149
v -444
v -431
v 0
v 0
v -758
v 655
v 0
v -996
v -923
v -77
v -126
v -988
v 0
v 0
v 0
v 0
v 0
v 0
v 0
v -521
v 0
v 468
v 0
v 639
v -815
v -271
v -345
v -2
v -502
v 0
v 0
v -227
v -681
v -964
v 0
v -252
v 0
v -577
v -393
v 0
v 0
v 0
v 163
v -732
v 0
v 0
v -677
v 0
v -11
v 0
v 0
v 0
v -135
v -140
v -438
v 0
v 0
v -751
v 0
v 0
v 0
v -806
v -873
v 0
v 899
v -356
v -323
v -902
v -528
v 0
v 630
v -461
v 0
v 0
v 0
v -595
v 0
v -278
v -509
v 0
v 0
v 0
v 185
v -664
v 0
v 611
v 0
v 259
v -398
v -497
v 0
v 0
v -400
v 0
v 0
v -147
v 0
v 0
v -132
v 0
v 0
v -998
v 0
v 0
v -756
v -79
v -890
v -263
v -533
v -915
v 0
v 0
v 0
v 0
v -246
v -516
v -479
v 0
v 0
v 0
v 0
v 0
v 0
v 0
v -842
v -385
v 0
v -312
v 0
v 865
v -335
v 0
v -105
v 0
v -761
v 0
v -714
v 0
v 0
v -480
v -33
v -86
v -607
v 0
v -584
v -470
v 0
v 0
v -975
v -193
v 0
v 0
v 0
v 0
v -304
v 0
v -854
v 0
v 0
v 0
v -541
v -211
v 880
v 0
v 0
v -782
v 0
v -768
v 0
v 0
v 0
v 0
v -489
v 0
v 0
v 0
v 0
v 0
v -362
v 832
v 0
v 0
v -206
v 0
v -556
v 0
v 0
v -113
v 0
v 0
v -777
v -799
v 0
v 0
v -54
v -21
v -785
v 0
v 0
v 0
v 0
v -88
v 0
v -825
v -375
v 0
v -930
v -729
v -426
v -642
v 0
v 0
v 0
v 0
v -291
v 0
v -945
v -621
v -746
v 0
v -984
v 0
v -452
v 0
v -43
v 0
v 0
v 0
v 0
v 0
v 0
v 796
v 0
v -778
v -704
v 0
v 0
v -177
v 0
v 0
v -92
v 0
v -286
v -563
v -233
v -417
v 952
v 0
v -691
v 0
v 0
v 0
v 0
v 0
v -939
v -720
v 0
v -157
v 0
v -298
v 0
v -65
v -626
v -741
v 0
v 983
v 0
v -455
v 0
v 0
v -44
v 0
v -810
v 524
v 0
v -340
v -274
v -599
v 0
v -7
v 0
v 0
v -99
v 0
v 0
v -166
v -737
v 0
v 0
v 0
v -672
v -698
v -14
v -921
v 0
v 446
v -433
v 0
v -657
v 0
v -994
v -75
v -124
v -748
v 0
v 0
v 0
v 0
v 0
v -905
v -466
v 0
v -637
v 0
v 0
v 592
v -504
v 0
v 0
v -188
v -687
v -962
v -669
v 0
v 0
v -254
v -571
v 395
v -221
v 0
v 0
v 0
v -288
v -161
v 0
v 0
v -419
v -675
v 0
v -730
v -13
v -928
v -142
v 0
v 0
v 0
v -137
v 0
v -753
v 0
v 0
v 0
v 0
v 0
v -325
v -350
v -875
v 0
v -800
v 0
